* ENCODING=ISO-8859-1
NAME          CPLEX
ROWS
 N  obj1    
 G  c1      
 G  c2      
 G  c3      
 G  c4      
 G  c5      
 G  c6      
 G  c7      
 G  c8      
 G  c9      
 G  c10     
 G  c11     
 G  c12     
 G  c13     
 G  c14     
 G  c15     
 G  c16     
 G  c17     
 G  c18     
 G  c19     
 G  c20     
 G  c21     
 G  c22     
 G  c23     
 G  c24     
 G  c25     
COLUMNS
    MARK0000  'MARKER'                 'INTORG'
    x1        obj1                            1
    x1        c8                            448
    x1        c17                           510
    x2        obj1                            1
    x2        c3                            450
    x2        c7                            559
    x2        c23                           533
    x3        obj1                            1
    x3        c3                            149
    x3        c6                            524
    x3        c15                           873
    x3        c19                           211
    x4        obj1                            1
    x4        c13                           162
    x4        c25                           220
    x5        obj1                            1
    x5        c5                            389
    x5        c6                            552
    x5        c11                           883
    x5        c14                           617
    x5        c20                           389
    x6        obj1                            1
    x7        obj1                            1
    x7        c4                            893
    x7        c6                            684
    x8        obj1                            1
    x8        c11                           367
    x8        c24                           771
    x9        obj1                            1
    x9        c5                            166
    x10       obj1                            1
    x10       c5                            982
    x10       c19                           428
    x10       c25                           940
    x11       obj1                            1
    x11       c13                           876
    x11       c22                           879
    x12       obj1                            1
    x12       c13                           414
    x13       obj1                            1
    x14       obj1                            1
    x14       c9                            750
    x14       c11                           682
    x14       c22                           924
    x15       obj1                            1
    x15       c1                            681
    x15       c3                            607
    x15       c14                           838
    x15       c20                           986
    x15       c22                           224
    x16       obj1                            1
    x16       c11                           533
    x16       c12                           119
    x17       obj1                            1
    x17       c8                            318
    x17       c13                           977
    x17       c25                           395
    x18       obj1                            1
    x18       c2                            686
    x18       c4                            189
    x18       c21                           313
    x19       obj1                            1
    x19       c4                            747
    x19       c14                           429
    x20       obj1                            1
    x20       c6                            473
    x21       obj1                            1
    x21       c3                            178
    x21       c6                            296
    x21       c23                           679
    x22       obj1                            1
    x22       c1                            822
    x22       c7                            166
    x22       c9                            134
    x22       c12                           870
    x22       c14                           864
    x22       c18                           121
    x23       obj1                            1
    x23       c4                            727
    x23       c12                           939
    x23       c22                           807
    x24       obj1                            1
    x24       c10                           822
    x24       c14                           945
    x24       c18                           252
    x24       c20                           189
    x24       c24                           713
    x25       obj1                            1
    x25       c8                            731
    x25       c24                           501
    x25       c25                           244
    x26       obj1                            1
    x26       c3                            780
    x26       c11                           548
    x26       c12                           415
    x26       c15                           476
    x26       c21                           104
    x27       obj1                            1
    x27       c8                            528
    x27       c13                           282
    x27       c14                           662
    x27       c16                           417
    x27       c17                           754
    x28       obj1                            1
    x28       c8                            203
    x28       c10                           561
    x28       c12                           513
    x28       c17                           757
    x28       c18                           728
    x29       obj1                            1
    x29       c2                            537
    x29       c7                            764
    x30       obj1                            1
    x30       c1                            514
    x30       c11                           824
    x30       c22                           992
    x30       c23                           618
    x31       obj1                            1
    x31       c6                            784
    x32       obj1                            1
    x32       c6                            965
    x32       c12                           416
    x32       c18                           805
    x33       obj1                            1
    x34       obj1                            1
    x34       c9                            299
    x34       c23                           501
    x35       obj1                            1
    x35       c3                            879
    x36       obj1                            1
    x36       c25                           204
    x37       obj1                            1
    x37       c9                            650
    x37       c10                           845
    x37       c11                           659
    x38       obj1                            1
    x38       c16                           120
    x38       c17                           439
    x39       obj1                            1
    x39       c3                            190
    x39       c7                            624
    x39       c22                           467
    x39       c25                           351
    x40       obj1                            1
    x40       c13                           900
    x41       obj1                            1
    x41       c4                            129
    x41       c10                           146
    x41       c18                           987
    x42       obj1                            1
    x42       c5                            186
    x42       c23                           172
    x43       obj1                            1
    x43       c4                            924
    x43       c10                           977
    x44       obj1                            1
    x44       c23                           715
    x45       obj1                            1
    x45       c4                            814
    x45       c16                           245
    x46       obj1                            1
    x46       c2                            912
    x46       c10                           562
    x46       c19                           243
    x47       obj1                            1
    x47       c1                            442
    x47       c9                            447
    x47       c15                           593
    x47       c18                           260
    x47       c20                           994
    x47       c21                           672
    x47       c25                           536
    x48       obj1                            1
    x49       obj1                            1
    x49       c17                           514
    x49       c19                           754
    x50       obj1                            1
    x50       c13                           300
    x50       c16                           422
    x50       c18                           837
    MARK0001  'MARKER'                 'INTEND'
RHS
    rhs       c1                           1230
    rhs       c2                           1068
    rhs       c3                           1617
    rhs       c4                           2212
    rhs       c5                            862
    rhs       c6                           2139
    rhs       c7                           1057
    rhs       c8                           1114
    rhs       c9                           1140
    rhs       c10                          1957
    rhs       c11                          2248
    rhs       c12                          1636
    rhs       c13                          1956
    rhs       c14                          2178
    rhs       c15                           971
    rhs       c16                           602
    rhs       c17                          1487
    rhs       c18                          1995
    rhs       c19                           818
    rhs       c20                          1279
    rhs       c21                           545
    rhs       c22                          2147
    rhs       c23                          1609
    rhs       c24                           993
    rhs       c25                          1445
BOUNDS
 LI bnd       x1        0
 LI bnd       x2        0
 LI bnd       x3        0
 LI bnd       x4        0
 LI bnd       x5        0
 LI bnd       x6        0
 LI bnd       x7        0
 LI bnd       x8        0
 LI bnd       x9        0
 LI bnd       x10       0
 LI bnd       x11       0
 LI bnd       x12       0
 LI bnd       x13       0
 LI bnd       x14       0
 LI bnd       x15       0
 LI bnd       x16       0
 LI bnd       x17       0
 LI bnd       x18       0
 LI bnd       x19       0
 LI bnd       x20       0
 LI bnd       x21       0
 LI bnd       x22       0
 LI bnd       x23       0
 LI bnd       x24       0
 LI bnd       x25       0
 LI bnd       x26       0
 LI bnd       x27       0
 LI bnd       x28       0
 LI bnd       x29       0
 LI bnd       x30       0
 LI bnd       x31       0
 LI bnd       x32       0
 LI bnd       x33       0
 LI bnd       x34       0
 LI bnd       x35       0
 LI bnd       x36       0
 LI bnd       x37       0
 LI bnd       x38       0
 LI bnd       x39       0
 LI bnd       x40       0
 LI bnd       x41       0
 LI bnd       x42       0
 LI bnd       x43       0
 LI bnd       x44       0
 LI bnd       x45       0
 LI bnd       x46       0
 LI bnd       x47       0
 LI bnd       x48       0
 LI bnd       x49       0
 LI bnd       x50       0
ENDATA
